N = 10;
H = 5;
T = 2;

avail = array3d(1..N, 1..H, 1..T, [0, 2, 8, 2, 10, 7, 0, 7, 1, 10, 10, 2, 7, 6, 7, 1, 4, 5, 8, 3, 2, 10, 6, 5, 8, 3, 9, 10, 8, 1, 9, 7, 9, 5, 1, 1, 9, 2, 7, 10, 2, 6, 9, 10, 4, 0, 6, 10, 9, 4, 1, 0, 9, 4, 1, 8, 3, 5, 1, 3, 8, 9, 5, 7, 3, 5, 4, 9, 7, 3, 2, 0, 8, 1, 10, 7, 8, 10, 4, 5, 0, 10, 9, 6, 6, 1, 6, 4, 5, 9, 0, 7, 3, 1, 0, 3, 0, 9, 3, 2]);

r = array2d(1..H, 1..T, [1, 3, 1, 3, 5, 2, 3, 4, 1, 4]);
